WARNING: for repeatability, setting FPU to use double precision
============================[ Problem Statistics ]=============================
|                                                                             |
|  Number of variables:         11345                                         |
|  Number of clauses:          244028                                         |
|  Parse time:                   0.05 s                                       |
|  Eliminated clauses:           0.07 Mb                                      |
|  Simplification time:          0.27 s                                       |
|                                                                             |
============================[ Search Statistics ]==============================
| Conflicts |          ORIGINAL         |          LEARNT          | Progress |
|           |    Vars  Clauses Literals |    Limit  Clauses Lit/Cl |          |
===============================================================================
|       100 |    2873    62214   132726 |    22811       88      5 | 56.034 % |
===============================================================================
restarts              : 2
conflicts             : 128            (410 /sec)
decisions             : 360            (0.00 % random) (1152 /sec)
propagations          : 50617          (161974 /sec)
conflict literals     : 592            (16.03 % deleted)
Memory used           : 32.96 MB
CPU time              : 0.3125 s

SATISFIABLE
